coords = array2d(1..62, 1..2, [161, 840, 498, 641, 601, 771, 156, 45, 51, 701,
    800, 396, 298, 198, 233, 957, 972, 64, 229, 278, 816, 281, 721,
    839, 451, 835, 395, 610, 814, 964, 660, 488, 204, 637, 784, 437,
    501, 583, 588, 525, 518, 245, 126, 845, 585, 325, 266, 109, 903,
    324, 321, 396, 929, 788, 794, 520, 784, 369, 150, 775, 242, 514,
    938, 857, 505, 859, 92, 636, 729, 287, 425, 2, 454, 136, 179, 852,
    39, 602, 727, 318, 272, 592, 371, 610, 65, 78, 737, 350, 860, 327,
    678, 329, 994, 216, 433, 200, 202, 276, 264, 699, 196, 812, 339,
    982, 326, 365, 158, 598, 732, 786, 458, 380, 559, 516, 621, 823,
    796, 399, 168, 814, 266, 903, 970, 860]);

n = 62;

